
******************************************************************************
This program contains Ipopt, a library for large-scale nonlinear optimization.
 Ipopt is released as open source code under the Eclipse Public License (EPL).
         For more information visit http://projects.coin-or.org/Ipopt

This version of Ipopt was compiled from source code available at
    https://github.com/IDAES/Ipopt as part of the Institute for the Design of
    Advanced Energy Systems Process Systems Engineering Framework (IDAES PSE
    Framework) Copyright (c) 2018-2019. See https://github.com/IDAES/idaes-pse.

This version of Ipopt was compiled using HSL, a collection of Fortran codes
    for large-scale scientific computation.  All technical papers, sales and
    publicity material resulting from use of the HSL codes within IPOPT must
    contain the following acknowledgement:
        HSL, a collection of Fortran codes for large-scale scientific
        computation. See http://www.hsl.rl.ac.uk.
******************************************************************************

This is Ipopt version 3.13.2, running with linear solver ma27.

Number of nonzeros in equality constraint Jacobian...:      808
Number of nonzeros in inequality constraint Jacobian.:        0
Number of nonzeros in Lagrangian Hessian.............:      702

Total number of variables............................:      351
                     variables with only lower bounds:      108
                variables with lower and upper bounds:      189
                     variables with only upper bounds:        0
Total number of equality constraints.................:      350
Total number of inequality constraints...............:        0
        inequality constraints with only lower bounds:        0
   inequality constraints with lower and upper bounds:        0
        inequality constraints with only upper bounds:        0

iter    objective    inf_pr   inf_du lg(mu)  ||d||  lg(rg) alpha_du alpha_pr  ls
   0  0.0000000e+00 4.81e-01 3.23e-27  -1.0 0.00e+00    -  0.00e+00 0.00e+00   0
   1  1.3243251e+00 3.68e-01 8.87e+03  -1.0 2.86e+05    -  6.77e-01 2.48e-01h  1
   2  1.4083931e+00 3.64e-01 8.93e+03  -1.0 2.69e+05    -  7.28e-01 9.74e-03h  1
   3  3.1121617e+01 5.58e-02 1.66e+04  -1.0 2.99e+05    -  7.32e-01 9.90e-01h  1
   4  4.0682909e+01 2.07e-03 2.10e+02  -1.0 5.43e+04    -  9.44e-01 9.90e-01h  1
   5  4.1019963e+01 2.29e-05 3.82e+00  -1.0 1.85e+03    -  9.90e-01 9.90e-01h  1
   6  4.1020865e+01 2.25e-05 1.31e+07  -1.0 5.72e+02    -  9.90e-01 1.55e-02f  7
   7  4.1024338e+01 2.18e-05 2.58e+07  -1.0 1.14e+03    -  9.90e-01 3.09e-02f  6
   8  4.1133755e+01 4.36e-05 3.98e+05  -1.0 1.13e+03    -  1.00e+00 9.90e-01H  1
   9  4.1133471e+01 4.32e-07 1.41e+07  -1.0 3.35e+00    -  1.00e+00 9.90e-01h  1
iter    objective    inf_pr   inf_du lg(mu)  ||d||  lg(rg) alpha_du alpha_pr  ls
  10  4.1133471e+01 4.32e-09 1.41e+09  -1.0 1.72e-03    -  1.00e+00 9.90e-01h  1
  11  4.1133471e+01 4.36e-11 1.41e+11  -1.0 1.72e-05    -  1.00e+00 9.90e-01h  1
In iteration 11, 27 Slacks too small, adjusting variable bounds
  12  4.1133471e+01 7.02e-13 1.41e+13  -1.0 4.00e-07    -  1.00e+00 9.90e-01h  1
  13  4.1133471e+01 4.22e-13 1.02e-01  -1.0 1.06e-07    -  1.00e+00 1.00e+00h  1
  14  4.1133470e+01 4.22e-13 1.43e+13  -9.0 1.29e+03    -  9.98e-01 3.42e-06f 19
  15  4.1133470e+01 1.75e-12 1.44e+13  -9.0 1.15e+03    -  9.99e-01 7.62e-06f 18
  16  4.1133470e+01 9.36e-13 1.44e+13  -9.0 1.15e+03    -  1.00e+00 5.96e-08f 25
  17  4.1133470e+01 6.20e-13 1.44e+13  -9.0 1.15e+03    -  1.00e+00 1.19e-07f 24
  18  4.1133469e+01 5.73e-13 1.44e+13  -9.0 1.15e+03    -  1.00e+00 3.81e-06f 19
  19  4.1023256e+01 6.57e-04 1.53e+05  -9.0 1.15e+03    -  1.00e+00 1.00e+00f  1
iter    objective    inf_pr   inf_du lg(mu)  ||d||  lg(rg) alpha_du alpha_pr  ls
  20  4.1022269e+01 2.36e-09 1.48e-04  -9.0 9.91e+00    -  1.00e+00 1.00e+00h  1
  21  4.1022269e+01 2.99e-12 1.46e-11  -9.0 6.66e-05    -  1.00e+00 1.00e+00h  1

Number of Iterations....: 21

                                   (scaled)                 (unscaled)
Objective...............:   4.1022268725498115e+01    4.1022268725498115e+01
Dual infeasibility......:   1.4551915228366852e-11    1.4551915228366852e-11
Constraint violation....:   2.9878322038712213e-12    2.9878322038712213e-12
Complementarity.........:   9.0909101695439027e-10    9.0909101695439027e-10
Overall NLP error.......:   1.2658416203389398e-11    9.0909101695439027e-10


Number of objective function evaluations             = 156
Number of objective gradient evaluations             = 22
Number of equality constraint evaluations            = 156
Number of inequality constraint evaluations          = 0
Number of equality constraint Jacobian evaluations   = 22
Number of inequality constraint Jacobian evaluations = 0
Number of Lagrangian Hessian evaluations             = 21
Total CPU secs in IPOPT (w/o function evaluations)   =      0.050
Total CPU secs in NLP function evaluations           =      1.134

EXIT: Optimal Solution Found.
